122	0

0	3	2	3	4
9	7	5	8	10	11	14	15	16
2	5	5	6	7	10	14
2	5	5	6	7	10	14
5	7	9	12	17	19	21	24	28
10	2	8	15
8	4	8	11	15	16
1	3	9	12	13
6	6	18	20	22	23	26	27
8	8	18	19	20	21	22	23	24	28
9	8	18	19	20	21	22	23	24	28
7	9	25	26	27	29	30	31	32	37	38
3	5	17	19	21	24	28
6	5	17	19	21	24	28
7	8	18	19	20	21	22	23	24	28
9	8	18	19	20	21	22	23	24	28
4	6	18	20	22	23	26	27
4	7	25	29	30	31	32	37	38
6	6	25	29	30	31	37	38
6	6	25	29	30	31	37	38
5	7	25	29	30	31	32	37	38
8	8	25	29	30	33	37	38	49	50
8	8	25	29	30	33	37	38	49	50
2	9	25	26	27	29	30	31	32	37	38
5	9	41	42	43	44	45	46	47	48	52
10	6	34	35	36	39	40	51
9	9	33	34	35	36	39	40	49	50	51
10	10	33	34	35	36	38	39	40	49	50	51
3	6	34	35	36	39	40	51
3	6	34	35	36	39	40	51
4	9	33	34	35	36	39	40	49	50	51
8	6	39	40	44	45	46	47
4	7	41	42	43	46	47	48	52
2	9	41	42	43	44	45	46	47	48	52
4	5	41	42	43	48	52
6	2	53	54
6	7	41	42	43	46	47	48	52
6	5	41	42	43	48	52
8	5	55	56	57	58	59
3	5	41	42	43	48	52
5	5	55	56	57	58	59
9	6	60	61	62	65	67	68
6	2	55	58
6	5	55	56	57	58	59
7	5	55	56	57	58	59
8	1	55
4	1	53
2	2	53	54
6	2	53	54
10	5	55	56	57	58	59
10	2	55	58
1	2	53	54
2	5	55	56	57	58	59
8	4	60	61	62	67
1	6	60	61	62	65	67	68
5	4	60	61	62	67
5	4	60	61	62	67
3	6	60	61	62	65	67	68
8	3	63	64	66
4	2	64	71
2	4	63	64	66	72
7	2	70	74
8	5	75	76	77	79	86
2	4	69	70	73	74
7	4	69	70	73	74
2	5	69	70	71	73	74
8	2	70	74
6	5	69	70	71	73	74
6	4	78	80	82	85
3	5	75	76	77	79	86
8	8	81	83	84	87	89	90	91	95
9	5	75	76	77	79	86
9	9	81	84	87	88	89	90	93	95	98
3	5	75	76	77	79	86
1	4	78	80	82	85
10	6	88	92	93	97	98	100
2	8	81	83	84	87	89	90	91	95
2	10	81	84	87	88	89	90	91	93	95	98
5	8	81	87	88	89	90	93	95	98
1	8	81	83	84	87	89	90	91	95
10	10	94	96	99	101	102	103	104	107	108	112
6	7	87	88	89	90	93	95	98
8	6	88	92	93	97	98	100
7	6	92	94	96	97	100	102
10	6	92	94	96	97	100	102
7	7	87	88	89	90	93	95	98
4	6	92	94	96	97	100	102
4	10	94	96	99	101	102	103	104	107	108	112
8	10	94	96	99	101	102	103	104	107	108	112
4	6	92	94	96	97	100	102
9	10	94	96	99	101	102	103	104	107	108	112
10	5	103	104	106	107	112
3	10	94	96	99	101	102	103	104	107	108	112
10	4	105	109	110	111
10	8	99	101	103	104	106	107	108	112
9	5	105	106	109	110	111
6	8	99	101	103	104	106	107	108	112
10	7	99	101	103	104	106	107	112
7	4	113	114	115	118
10	5	103	104	106	107	112
5	4	105	109	110	111
7	5	105	106	109	110	111
4	4	105	109	110	111
10	5	113	114	116	117	119
2	4	113	114	115	118
7	5	113	114	116	117	119
9	5	113	114	116	117	119
9	4	113	114	115	118
7	3	116	117	119
4	5	113	114	116	117	119
2	4	113	114	115	118
10	5	113	114	116	117	119
6	1	120
10	1	121
5	3	116	117	119
9	1	121
5	1	120
6	2	119	120
9	1	122
2	1	121
2	1	122
0	0
